c File: instances/24_0.25_2.col
c
c Description: Random graph of size 24 vertices and P(0.25) of edges between any two vertices.
p col 24 276
e 1 6
e 1 10
e 1 14
e 1 24
e 2 9
e 2 11
e 2 17
e 2 20
e 2 23
e 3 4
e 3 9
e 3 10
e 3 12
e 3 14
e 3 18
e 3 20
e 4 5
e 4 11
e 4 12
e 4 22
e 4 23
e 5 8
e 5 13
e 5 16
e 5 18
e 5 19
e 6 10
e 6 17
e 6 19
e 6 20
e 6 21
e 6 24
e 7 8
e 7 14
e 7 17
e 7 18
e 7 19
e 7 22
e 7 24
e 8 10
e 8 12
e 8 13
e 8 18
e 8 21
e 8 24
e 9 16
e 9 21
e 10 13
e 10 22
e 10 24
e 11 12
e 11 22
e 12 18
e 13 15
e 14 15
e 14 16
e 14 17
e 14 19
e 14 22
e 14 23
e 15 17
e 15 20
e 16 17
e 16 20
e 16 21
e 16 22
e 18 20
e 19 23
e 20 23
e 21 22
e 21 23
e 21 24